NAME: random95
TYPE: TSP
DIMENSION: 95
EDGE_WEIGHT_TYPE: EXPLICIT
EDGE_WEIGHT_FORMAT: FULL_MATRIX
EDGE_WEIGHT_SECTION
0 132 132 132 132 132 132 132 21 132 132 16 132 4 132 132 21 132 132 15 132 29 132 132 12 132 132 132 132 132 132 132 132 36 132 132 132 132 14 132 132 132 6 25 132 132 132 132 132 22 132 132 132 132 45 26 132 36 132 132 132 132 132 132 15 20 132 132 24 132 132 132 132 23 18 132 132 132 132 132 132 132 132 32 132 132 132 132 132 30 132 132 18 132 132
132 0 132 132 29 132 132 132 132 34 132 132 132 132 52 132 132 132 132 132 132 132 28 132 132 132 8 132 132 132 132 27 132 132 132 24 132 132 132 132 132 132 132 132 132 132 18 132 15 132 6 132 51 132 132 132 132 132 132 19 132 132 20 132 132 132 132 132 132 132 132 132 132 132 132 132 132 25 35 17 132 132 33 132 33 132 132 132 132 132 28 132 132 32 132
132 132 0 132 25 9 132 132 132 132 132 132 24 132 15 19 132 132 132 132 132 132 10 16 132 132 132 132 132 132 11 132 132 132 132 14 132 132 132 44 132 132 132 132 132 132 132 24 132 132 132 10 132 15 132 132 132 132 132 20 132 132 132 132 132 132 8 132 132 22 132 132 132 132 132 132 132 17 132 132 132 132 132 132 18 132 29 18 132 132 132 132 132 12 132
132 132 132 0 132 132 23 132 132 14 132 132 132 132 132 132 132 132 132 132 28 132 132 132 132 132 32 132 132 132 132 24 132 22 132 132 132 132 132 132 22 132 132 132 29 132 132 132 132 132 23 132 132 132 132 132 132 132 31 33 22 132 132 23 132 132 132 132 132 132 132 132 15 132 132 22 132 26 26 12 12 27 21 132 132 132 24 29 40 132 132 132 132 32 132
132 29 25 132 0 25 132 132 132 132 132 132 132 132 32 41 132 132 132 132 132 132 17 132 132 132 35 132 132 132 26 132 132 132 132 20 132 132 132 132 132 132 132 132 132 132 18 132 20 132 30 132 79 40 132 132 132 132 132 17 132 132 19 132 132 132 23 132 132 132 132 132 132 132 132 132 132 27 63 132 132 132 132 132 7 132 132 132 132 132 23 132 132 132 132
132 132 9 132 25 0 132 16 132 132 132 132 26 132 8 17 132 132 132 132 132 132 17 20 132 132 132 132 132 132 2 132 132 132 132 22 132 132 132 132 132 132 132 132 132 132 132 24 42 132 132 19 132 17 132 132 132 132 132 26 132 132 132 132 132 132 16 132 132 25 132 132 132 132 132 132 132 26 132 132 132 132 132 132 18 132 132 27 132 132 48 132 132 21 132
132 132 132 23 132 132 0 132 26 36 26 132 34 38 132 132 21 132 132 41 132 26 132 30 132 132 132 132 132 132 132 132 132 19 27 132 132 132 132 32 4 40 132 25 132 132 132 132 132 132 132 132 132 132 132 132 132 47 14 132 32 132 132 132 132 132 132 132 132 32 132 132 8 132 132 21 132 25 132 30 13 29 14 132 132 132 6 17 132 38 132 132 132 132 132
132 132 132 132 132 16 132 0 132 132 132 132 17 132 10 6 132 132 132 132 132 132 132 132 132 132 132 132 132 132 15 132 13 132 132 132 132 17 132 132 132 132 132 132 132 13 132 11 132 132 132 132 132 12 132 132 26 132 132 132 132 31 132 132 132 132 132 20 132 18 132 132 132 132 132 132 132 132 132 132 132 132 132 132 34 132 132 132 132 132 132 132 132 132 132
21 132 132 132 132 132 26 132 0 132 132 132 132 19 132 132 12 132 132 14 132 8 132 132 30 132 132 132 132 132 132 132 132 31 13 132 132 132 132 132 132 132 26 4 132 132 132 132 132 30 132 132 132 132 132 132 132 24 17 132 132 132 132 132 7 132 132 132 132 132 132 132 132 132 132 132 132 132 132 132 132 132 132 132 132 132 132 132 132 38 132 132 132 132 132
132 34 132 14 132 132 36 132 132 0 132 132 132 132 132 132 132 132 132 132 14 132 132 132 132 132 34 132 132 132 132 15 132 28 132 132 36 132 132 132 35 132 132 132 20 132 132 132 132 132 30 132 24 132 132 132 132 132 132 132 18 132 132 9 132 132 132 132 132 132 132 25 28 132 132 27 132 40 14 20 23 27 35 132 132 132 132 43 35 132 61 132 132 132 24
132 132 132 132 132 132 26 132 132 132 0 132 28 132 132 132 22 132 132 24 132 6 132 31 132 132 132 132 132 132 132 132 132 38 1 132 132 132 132 9 29 15 132 9 132 33 132 34 132 38 132 40 132 35 23 132 34 21 23 132 132 132 132 132 132 132 132 132 132 27 132 132 35 132 132 132 132 45 132 132 38 132 36 132 132 32 28 33 132 132 132 132 132 132 132
16 132 132 132 132 132 132 132 132 132 132 0 132 17 132 132 132 15 132 31 132 132 132 132 6 132 132 132 132 132 132 132 132 132 132 132 132 132 7 132 132 132 17 132 132 132 132 132 132 132 132 132 132 132 132 12 132 132 132 132 132 132 132 132 132 19 132 132 9 132 132 132 132 23 17 132 132 132 132 132 132 132 132 22 132 132 132 132 132 23 132 132 10 132 132
132 132 24 132 132 26 34 17 132 132 28 132 0 132 23 12 132 132 132 132 132 33 132 9 132 132 132 132 132 132 26 132 15 132 28 132 132 22 132 23 132 29 132 132 132 8 132 7 132 132 132 25 132 9 37 132 20 132 132 132 132 28 132 132 132 132 132 17 132 3 132 132 132 132 132 132 132 132 132 132 132 132 132 132 132 25 30 24 132 132 132 132 132 132 132
4 132 132 132 132 132 38 132 19 132 132 17 132 0 132 132 17 28 35 16 132 26 132 132 12 132 132 132 132 132 132 132 132 32 132 132 132 132 16 132 132 132 10 23 132 132 132 132 132 25 132 132 132 132 132 25 132 36 24 132 132 132 132 132 12 23 132 132 24 132 132 132 132 132 21 32 30 132 132 132 132 33 132 30 132 132 132 132 132 28 132 132 21 132 132
132 52 15 132 32 8 132 10 132 132 132 132 23 132 0 12 132 132 132 132 132 132 24 19 132 132 60 132 132 132 6 132 23 132 132 29 132 27 132 132 132 132 132 132 132 21 49 19 50 132 132 132 95 15 132 132 132 132 132 33 132 41 50 132 132 132 132 30 132 23 132 132 132 132 132 132 132 132 132 132 132 132 132 132 24 132 132 132 132 132 55 132 132 132 132
132 132 19 132 41 17 132 6 132 132 132 132 12 132 12 0 132 132 132 132 132 132 132 11 132 132 132 132 132 132 16 132 13 132 132 132 132 19 132 34 132 132 132 132 132 9 132 7 132 132 132 132 132 6 132 132 25 132 132 132 132 132 132 132 132 132 132 19 132 12 132 132 132 132 132 132 132 132 132 132 132 132 132 132 34 132 132 132 132 132 132 132 132 132 132
21 132 132 132 132 132 21 132 12 132 22 132 132 17 132 132 0 132 36 23 132 18 132 132 25 132 132 132 132 132 132 132 132 19 132 132 132 132 33 132 132 132 27 15 132 132 132 132 132 132 132 132 132 132 132 34 132 36 7 132 34 132 132 132 10 132 132 132 34 132 132 132 26 132 132 20 27 132 132 132 27 25 132 32 132 132 132 132 37 27 132 132 132 132 132
132 132 132 132 132 132 132 132 132 132 132 15 132 28 132 132 132 0 14 132 132 132 132 132 17 15 132 45 16 132 132 132 132 132 132 132 27 132 21 132 132 132 31 132 132 132 132 132 132 49 132 132 132 132 132 3 132 132 132 132 132 132 132 132 132 33 132 132 6 132 26 132 132 37 31 132 19 132 132 132 132 132 132 11 132 132 132 132 20 16 132 132 23 132 132
132 132 132 132 132 132 132 132 132 132 132 132 132 35 132 132 36 14 0 132 132 132 132 132 27 2 132 32 3 132 132 132 132 27 132 132 14 132 132 132 132 132 132 132 21 132 132 132 132 132 132 132 132 132 132 16 132 132 132 132 23 132 132 132 132 132 132 132 19 132 15 34 132 132 132 26 10 132 132 132 132 18 132 6 132 132 132 132 6 9 132 132 132 132 132
15 132 132 132 132 132 41 132 14 132 24 31 132 16 132 132 23 132 132 0 132 19 132 132 27 132 132 132 132 132 132 132 132 42 24 132 132 132 28 30 132 28 16 17 132 132 132 132 132 16 132 132 132 132 30 40 132 21 29 132 132 132 132 132 12 29 132 132 132 132 132 132 132 31 28 132 132 132 132 132 132 132 132 132 132 49 132 132 132 42 132 132 31 132 132
132 132 132 28 132 132 132 132 132 14 132 132 132 132 132 132 132 132 132 132 0 132 132 132 132 132 42 26 39 19 132 18 132 132 132 132 31 132 132 132 132 132 132 132 19 132 132 132 132 132 132 132 10 132 132 132 132 132 132 132 23 132 64 5 132 132 132 132 132 132 34 14 132 132 132 132 132 132 11 32 132 32 132 132 132 132 132 132 34 132 70 25 132 132 10
29 132 132 132 132 132 26 132 8 132 6 132 33 26 132 132 18 132 132 19 132 0 132 132 132 132 132 132 132 132 132 132 132 35 6 132 132 132 132 14 29 18 32 4 132 132 132 132 132 34 132 132 132 132 25 132 132 21 20 132 132 132 132 132 14 46 132 132 132 32 132 132 34 132 132 36 132 132 132 132 37 132 37 132 132 37 28 35 132 44 132 132 132 132 132
132 28 10 132 17 17 132 132 132 132 132 132 132 132 24 132 132 132 132 132 132 132 0 25 132 132 132 132 132 132 18 132 132 132 132 6 132 132 132 132 132 132 132 132 132 132 29 132 28 132 26 11 132 26 132 132 132 132 132 10 132 132 132 132 132 132 6 132 132 32 132 132 132 132 132 132 132 12 132 32 132 132 132 132 13 132 132 20 132 132 37 132 132 12 132
132 132 16 132 132 20 30 132 132 132 31 132 9 132 19 11 132 132 132 132 132 132 25 0 132 132 132 132 132 132 20 132 132 132 132 27 132 132 132 28 28 132 132 132 132 14 132 12 132 132 132 17 132 5 132 132 28 132 132 132 132 132 132 132 132 132 20 132 132 6 132 132 132 132 132 132 132 26 132 132 132 132 25 132 34 132 25 17 132 132 132 132 132 18 132
12 132 132 132 132 132 132 132 30 132 132 6 132 12 132 132 25 17 27 27 132 132 132 132 0 29 132 132 132 132 132 132 132 34 132 132 132 132 9 132 132 132 14 132 132 132 132 132 132 32 132 132 132 132 132 14 132 132 31 132 132 132 132 132 24 21 132 132 12 132 132 132 132 25 18 132 26 132 132 132 132 32 132 22 132 132 132 132 132 22 132 132 13 132 132
132 132 132 132 132 132 132 132 132 132 132 132 132 132 132 132 132 15 2 132 132 132 132 132 29 0 132 31 2 132 132 132 132 132 132 132 12 132 132 132 132 132 132 132 22 132 132 132 132 132 132 132 132 132 132 17 132 132 132 132 132 132 132 132 132 132 132 132 20 132 13 33 132 132 132 132 12 132 132 132 132 20 132 7 132 132 132 132 6 12 132 132 37 132 132
132 8 132 32 35 132 132 132 132 34 132 132 132 132 60 132 132 132 132 132 42 132 132 132 132 132 0 132 132 59 132 23 132 132 132 33 132 132 132 132 132 132 132 132 54 132 21 132 18 132 13 132 48 132 132 132 132 132 132 27 51 132 22 40 132 132 132 132 132 132 132 55 132 132 132 132 132 33 31 21 132 132 40 132 40 132 132 44 132 132 29 132 132 132 49
132 132 132 132 132 132 132 132 132 132 132 132 132 132 132 132 132 45 32 132 26 132 132 132 132 31 132 0 29 13 132 132 132 132 132 132 18 132 132 132 132 132 132 132 23 132 132 132 132 132 132 132 22 132 132 132 132 132 132 132 32 132 132 29 132 132 132 132 132 132 18 13 132 132 132 132 132 132 132 132 132 132 132 132 132 132 132 132 28 132 132 6 132 132 20
132 132 132 132 132 132 132 132 132 132 132 132 132 132 132 132 132 16 3 132 39 132 132 132 132 2 132 29 0 132 132 132 132 132 132 132 11 132 132 132 132 132 132 132 21 132 132 132 132 132 132 132 132 132 132 19 132 132 132 132 23 132 132 37 132 132 132 132 132 132 12 32 132 132 132 132 12 132 132 132 132 20 132 9 132 132 132 132 5 12 132 35 132 132 132
132 132 132 132 132 132 132 132 132 132 132 132 132 132 132 132 132 132 132 132 19 132 132 132 132 132 59 13 132 0 132 132 132 132 132 132 29 132 132 132 132 132 132 132 26 132 132 132 132 132 132 132 11 132 132 132 132 132 132 132 132 132 132 23 132 132 132 132 132 132 30 9 132 132 132 132 132 132 28 132 132 132 132 132 132 132 132 132 132 132 132 8 132 132 10
132 132 11 132 26 2 132 15 132 132 132 132 26 132 6 16 132 132 132 132 132 132 18 20 132 132 132 132 132 132 0 132 132 132 132 24 132 32 132 132 132 132 132 132 132 132 132 23 44 132 132 20 132 16 132 132 132 132 132 28 132 132 45 132 132 132 18 132 132 25 132 132 132 132 132 132 132 132 132 132 132 132 132 132 19 132 132 132 132 132 49 132 132 132 132
132 27 132 24 132 132 132 132 132 15 132 132 132 132 132 132 132 132 132 132 18 132 132 132 132 132 23 132 132 132 132 0 132 132 132 132 132 132 132 132 132 132 132 132 33 132 132 132 41 132 25 132 24 132 132 132 132 132 132 42 33 132 46 17 132 132 132 132 132 132 132 132 38 132 132 132 132 42 8 21 35 132 42 132 132 132 132 132 132 132 52 132 132 132 26
132 132 132 132 132 132 132 13 132 132 132 132 15 132 23 13 132 132 132 132 132 132 132 132 132 132 132 132 132 132 132 132 0 132 132 132 132 7 132 31 132 132 132 132 132 7 132 9 132 132 132 132 132 18 132 132 13 132 132 132 132 18 132 132 132 132 132 7 132 17 132 132 132 132 132 132 132 132 132 132 132 132 132 132 132 21 132 132 132 132 132 132 132 132 132
36 132 132 22 132 132 19 132 31 28 38 132 132 32 132 132 19 132 27 42 132 35 132 132 34 132 132 132 132 132 132 132 132 0 39 132 132 132 132 132 22 132 132 33 24 132 132 132 132 132 132 132 132 132 132 34 132 132 15 132 15 132 132 132 29 132 132 132 132 132 132 132 18 132 132 2 17 132 132 132 14 10 29 26 132 132 25 132 25 20 132 132 132 132 132
132 132 132 132 132 132 27 132 13 132 1 132 28 132 132 132 132 132 132 24 132 6 132 132 132 132 132 132 132 132 132 132 132 39 0 132 132 132 132 9 29 14 38 9 132 132 132 132 132 38 132 132 132 35 22 132 34 20 24 132 132 41 132 132 132 132 132 132 132 27 132 132 132 132 132 132 132 132 132 132 132 132 132 132 132 31 28 33 132 132 132 132 132 132 132
132 24 14 132 20 22 132 132 132 132 132 132 132 132 29 132 132 132 132 132 132 132 6 27 132 132 33 132 132 132 24 132 132 132 132 0 132 132 132 132 132 132 132 132 132 132 132 132 27 132 21 10 132 28 132 132 132 132 132 7 132 132 132 132 132 132 7 132 132 132 132 132 132 132 132 132 132 7 132 26 132 132 19 132 18 132 27 17 132 132 132 132 132 10 132
132 132 132 132 132 132 132 132 132 36 132 132 132 132 132 132 132 27 14 132 31 132 132 132 132 12 132 18 11 29 132 132 132 132 132 132 0 132 132 132 132 132 132 132 16 132 132 132 132 132 132 132 33 132 132 132 132 132 132 132 22 132 132 31 132 132 132 132 132 132 4 22 132 132 132 32 20 132 42 132 132 24 132 19 132 132 132 132 10 21 132 25 132 132 31
132 132 132 132 132 132 132 17 132 132 132 132 22 132 27 19 132 132 132 132 132 132 132 132 132 132 132 132 132 132 32 132 7 132 132 132 132 0 132 37 132 132 132 132 132 14 132 16 132 132 132 132 132 24 43 132 14 132 132 132 132 15 132 132 132 132 132 9 132 132 132 132 132 132 132 132 132 132 132 132 132 132 132 132 132 22 132 132 132 132 132 132 132 132 132
14 132 132 132 132 132 132 132 132 132 132 7 132 16 132 132 33 21 132 28 132 132 132 132 9 132 132 132 132 132 132 132 132 132 132 132 132 132 0 132 132 132 13 132 132 132 132 132 132 29 132 132 132 132 132 18 132 49 132 132 132 132 132 132 29 13 132 132 16 132 132 132 132 17 10 132 132 132 132 132 132 132 132 132 132 132 132 132 132 30 132 132 5 132 132
132 132 44 132 132 132 32 132 132 132 9 132 23 132 132 34 132 132 132 30 132 14 132 28 132 132 132 132 132 132 132 132 31 132 9 132 132 37 132 0 34 9 132 132 132 27 132 28 132 42 132 132 132 31 18 132 25 19 32 132 132 33 132 132 132 132 132 28 132 23 132 132 132 132 132 132 132 132 132 132 132 132 39 132 132 23 32 34 132 132 132 132 132 132 132
132 132 132 22 132 132 4 132 132 35 29 132 132 132 132 132 132 132 132 132 132 29 132 28 132 132 132 132 132 132 132 132 132 22 29 132 132 132 132 34 0 132 132 132 132 132 132 132 132 132 132 132 132 132 132 132 132 132 18 132 34 132 132 132 132 132 132 132 132 30 132 132 7 132 132 23 132 21 132 27 12 132 10 132 132 132 3 14 132 132 132 132 132 21 132
132 132 132 132 132 132 40 132 132 132 15 132 29 132 132 132 132 132 132 28 132 18 132 132 132 132 132 132 132 132 132 132 132 132 14 132 132 132 132 9 132 0 44 21 132 32 132 132 132 38 132 132 132 132 9 132 26 12 132 132 132 32 132 132 132 132 132 30 132 30 132 132 132 132 132 132 132 132 132 132 132 132 132 132 132 21 41 132 132 132 132 132 132 132 132
6 132 132 132 132 132 132 132 26 132 132 17 132 10 132 132 27 31 132 16 132 32 132 132 14 132 132 132 132 132 132 132 132 132 38 132 132 132 13 132 132 44 0 29 132 132 132 132 132 18 132 132 132 132 45 132 132 37 132 132 132 132 132 132 20 14 132 132 26 132 132 132 132 17 13 132 132 132 132 132 132 132 132 132 132 132 132 132 132 35 132 132 16 132 132
25 132 132 132 132 132 25 132 4 132 9 132 132 23 132 132 15 132 132 17 132 4 132 132 132 132 132 132 132 132 132 132 132 33 9 132 132 132 132 132 132 21 29 0 132 132 132 132 132 33 132 132 132 132 28 132 132 23 18 132 132 132 132 132 11 132 132 132 132 132 132 132 132 132 132 132 132 132 132 132 36 40 132 132 132 132 29 132 132 41 132 132 132 132 132
132 132 132 29 132 132 132 132 132 20 132 132 132 132 132 132 132 132 21 132 19 132 132 132 132 22 54 23 21 26 132 33 132 24 132 132 16 132 132 132 132 132 132 132 0 132 132 132 132 132 132 132 24 132 132 132 132 132 132 132 9 132 132 17 132 132 132 132 132 132 19 17 132 132 132 23 19 132 28 38 31 16 132 132 132 132 132 132 16 23 132 27 132 132 23
132 132 132 132 132 132 132 13 132 132 33 132 8 132 21 9 132 132 132 132 132 132 132 14 132 132 132 132 132 132 132 132 7 132 132 132 132 14 132 27 132 32 132 132 132 0 132 3 132 132 132 132 132 11 38 132 16 132 132 132 132 23 132 132 132 132 132 11 132 10 132 132 132 132 132 132 132 132 132 132 132 132 132 132 132 23 132 132 132 132 132 132 132 132 132
132 18 132 132 18 132 132 132 132 132 132 132 132 132 49 132 132 132 132 132 132 132 29 132 132 132 21 132 132 132 132 132 132 132 132 132 132 132 132 132 132 132 132 132 132 132 0 132 3 132 23 132 68 132 132 132 132 132 132 22 132 132 3 132 132 132 132 132 132 132 132 132 132 132 132 132 132 132 132 132 132 132 132 132 25 132 132 132 132 132 10 132 132 132 132
132 132 24 132 132 24 132 11 132 132 34 132 7 132 19 7 132 132 132 132 132 132 132 12 132 132 132 132 132 132 23 132 9 132 132 132 132 16 132 28 132 132 132 132 132 3 132 0 132 132 132 132 132 9 132 132 18 132 132 132 132 25 132 132 132 132 132 13 132 9 132 132 132 132 132 132 132 132 132 132 132 132 132 132 41 25 132 29 132 132 132 132 132 132 132
132 15 132 132 20 42 132 132 132 132 132 132 132 132 50 132 132 132 132 132 132 132 28 132 132 132 18 132 132 132 44 41 132 132 132 27 132 132 132 132 132 132 132 132 132 132 3 132 0 132 20 132 65 132 132 132 132 132 132 21 132 132 6 132 132 132 132 132 132 132 132 132 132 132 132 132 132 32 49 32 132 132 132 132 26 132 132 132 132 132 13 132 132 132 132
22 132 132 132 132 132 132 132 30 132 38 132 132 25 132 132 132 49 132 16 132 34 132 132 32 132 132 132 132 132 132 132 132 132 38 132 132 132 29 42 132 38 18 33 132 132 132 132 132 0 132 132 132 132 36 132 132 27 45 132 132 68 132 132 28 22 132 132 44 132 132 132 132 22 23 132 132 132 132 132 132 132 132 132 132 57 132 132 132 132 132 132 30 132 132
132 6 132 23 30 132 132 132 132 30 132 132 132 132 132 132 132 132 132 132 132 132 26 132 132 132 13 132 132 132 132 25 132 132 132 21 132 132 132 132 132 132 132 132 132 132 23 132 20 132 0 132 49 132 132 132 132 132 132 17 132 132 26 132 132 132 28 132 132 132 132 132 31 132 132 132 132 21 33 11 132 132 27 132 33 132 35 32 132 132 33 132 132 28 132
132 132 10 132 132 19 132 132 132 132 40 132 25 132 132 132 132 132 132 132 132 132 11 17 132 132 132 132 132 132 20 132 132 132 132 10 132 132 132 132 132 132 132 132 132 132 132 132 132 132 132 0 132 19 132 132 132 132 132 17 132 132 132 132 132 132 6 132 132 23 132 132 132 132 132 132 132 9 132 31 132 132 15 132 24 132 20 9 132 132 132 132 132 2 132
132 51 132 132 79 132 132 132 132 24 132 132 132 132 95 132 132 132 132 132 10 132 132 132 132 132 48 22 132 11 132 24 132 132 132 132 33 132 132 132 132 132 132 132 24 132 68 132 65 132 49 132 0 132 132 132 132 132 132 132 31 132 70 15 132 132 132 132 132 132 132 11 132 132 132 132 132 132 17 41 132 132 132 132 132 132 132 132 132 132 76 19 132 132 2
132 132 15 132 40 17 132 12 132 132 35 132 9 132 15 6 132 132 132 132 132 132 26 5 132 132 132 132 132 132 16 132 18 132 35 28 132 24 132 31 132 132 132 132 132 11 132 9 132 132 132 19 132 0 132 132 27 132 132 34 132 132 132 132 132 132 21 22 132 8 132 132 132 132 132 132 132 132 132 132 132 132 30 132 33 34 30 22 132 132 62 132 132 21 132
45 132 132 132 132 132 132 132 132 132 23 132 37 132 132 132 132 132 132 30 132 25 132 132 132 132 132 132 132 132 132 132 132 132 22 132 132 43 132 18 132 9 45 28 132 38 132 132 132 36 132 132 132 132 0 132 29 9 132 132 132 33 132 132 132 56 132 35 132 132 132 132 132 132 132 132 132 132 132 132 132 132 132 132 132 22 132 132 132 132 132 132 132 132 132
26 132 132 132 132 132 132 132 132 132 132 12 132 25 132 132 34 3 16 40 132 132 132 132 14 17 132 132 19 132 132 132 132 34 132 132 132 132 18 132 132 132 132 132 132 132 132 132 132 132 132 132 132 132 132 0 132 132 132 132 132 132 132 132 35 30 132 132 3 132 29 132 132 34 132 132 19 132 132 132 132 28 132 12 132 132 132 132 22 16 132 132 20 132 132
132 132 132 132 132 132 132 26 132 132 34 132 20 132 132 25 132 132 132 132 132 132 132 28 132 132 132 132 132 132 132 132 13 132 34 132 132 14 132 25 132 26 132 132 132 16 132 18 132 132 132 132 132 27 29 132 0 37 132 132 132 9 132 132 132 132 132 7 132 23 132 132 132 132 132 132 132 132 132 132 132 132 132 132 132 8 48 132 132 132 132 132 132 132 132
36 132 132 132 132 132 47 132 24 132 21 132 132 36 132 132 36 132 132 21 132 21 132 132 132 132 132 132 132 132 132 132 132 132 20 132 132 132 49 19 132 12 37 23 132 132 132 132 132 27 132 132 132 132 9 132 37 0 40 132 132 41 132 132 28 47 132 132 132 42 132 132 132 48 47 132 132 132 132 132 132 132 132 132 132 30 48 132 132 132 132 132 132 132 132
132 132 132 31 132 132 14 132 17 132 23 132 132 24 132 132 7 132 132 29 132 20 132 132 31 132 132 132 132 132 132 132 132 15 24 132 132 132 132 32 18 132 132 18 132 132 132 132 132 45 132 132 132 132 132 132 132 40 0 132 30 132 132 132 17 132 132 132 132 40 132 132 19 132 132 17 28 132 132 132 20 23 132 132 132 132 20 132 132 28 132 132 132 132 132
132 19 20 33 17 26 132 132 132 132 132 132 132 132 33 132 132 132 132 132 132 132 10 132 132 132 27 132 132 132 28 42 132 132 132 7 132 132 132 132 132 132 132 132 132 132 22 132 21 132 17 17 132 34 132 132 132 132 132 0 132 132 24 132 132 132 13 132 132 132 132 132 132 132 132 132 132 12 132 24 132 132 23 132 17 132 132 24 132 132 31 132 132 16 132
132 132 132 22 132 132 32 132 132 18 132 132 132 132 132 132 34 132 23 132 23 132 132 132 132 132 51 32 23 132 132 33 132 15 132 132 22 132 132 132 34 132 132 132 9 132 132 132 132 132 132 132 31 132 132 132 132 132 30 132 0 132 132 19 132 132 132 132 132 132 26 25 27 132 132 14 16 47 30 33 22 10 38 132 132 132 132 132 18 20 132 132 132 132 29
132 132 132 132 132 132 132 31 132 132 132 132 28 132 41 132 132 132 132 132 132 132 132 132 132 132 132 132 132 132 132 132 18 132 41 132 132 15 132 33 132 32 132 132 132 23 132 25 132 68 132 132 132 132 33 132 9 41 132 132 132 0 132 132 132 132 132 12 132 31 132 132 132 132 132 132 132 132 132 132 132 132 132 132 132 11 132 132 132 132 132 132 132 132 132
132 20 132 132 19 132 132 132 132 132 132 132 132 132 50 132 132 132 132 132 64 132 132 132 132 132 22 132 132 132 45 46 132 132 132 132 132 132 132 132 132 132 132 132 132 132 3 132 6 132 26 132 70 132 132 132 132 132 132 24 132 132 0 132 132 132 132 132 132 132 132 132 132 132 132 132 132 132 54 37 132 132 132 132 26 132 132 132 132 132 8 132 132 132 132
132 132 132 23 132 132 132 132 132 9 132 132 132 132 132 132 132 132 132 132 5 132 132 132 132 132 40 29 37 23 132 17 132 132 132 132 31 132 132 132 132 132 132 132 17 132 132 132 132 132 132 132 15 132 132 132 132 132 132 132 19 132 132 0 132 132 132 132 132 132 132 17 36 132 132 31 35 132 11 28 31 29 44 132 132 132 132 132 32 132 68 132 132 132 15
15 132 132 132 132 132 132 132 7 132 132 132 132 12 132 132 10 132 132 12 132 14 132 132 24 132 132 132 132 132 132 132 132 29 132 132 132 132 29 132 132 132 20 11 132 132 132 132 132 28 132 132 132 132 132 35 132 28 17 132 132 132 132 132 0 132 132 132 132 132 132 132 132 132 132 132 132 132 132 132 132 35 132 132 132 132 132 132 132 33 132 132 132 132 132
20 132 132 132 132 132 132 132 132 132 132 19 132 23 132 132 132 33 132 29 132 46 132 132 21 132 132 132 132 132 132 132 132 132 132 132 132 132 13 132 132 132 14 132 132 132 132 132 132 22 132 132 132 132 56 30 132 47 132 132 132 132 132 132 132 0 132 132 28 132 132 132 132 4 2 132 132 132 132 132 132 132 132 132 132 132 132 132 132 132 132 132 11 132 132
132 132 8 132 23 16 132 132 132 132 132 132 132 132 132 132 132 132 132 132 132 132 6 20 132 132 132 132 132 132 18 132 132 132 132 7 132 132 132 132 132 132 132 132 132 132 132 132 132 132 28 6 132 21 132 132 132 132 132 13 132 132 132 132 132 132 0 132 132 27 132 132 132 132 132 132 132 10 132 132 132 132 19 132 18 132 132 15 132 132 132 132 132 6 132
132 132 132 132 132 132 132 20 132 132 132 132 17 132 30 19 132 132 132 132 132 132 132 132 132 132 132 132 132 132 132 132 7 132 132 132 132 9 132 28 132 30 132 132 132 11 132 13 132 132 132 132 132 22 35 132 7 132 132 132 132 12 132 132 132 132 132 0 132 20 132 132 132 132 132 132 132 132 132 132 132 132 132 132 132 15 132 132 132 132 132 132 132 132 132
24 132 132 132 132 132 132 132 132 132 132 9 132 24 132 132 34 6 19 132 132 132 132 132 12 20 132 132 132 132 132 132 132 132 132 132 132 132 16 132 132 132 26 132 132 132 132 132 132 44 132 132 132 132 132 3 132 132 132 132 132 132 132 132 132 28 132 132 0 132 32 132 132 32 26 132 132 132 132 132 132 132 132 14 132 132 132 132 132 18 132 132 17 132 132
132 132 22 132 132 25 32 18 132 132 27 132 3 132 23 12 132 132 132 132 132 32 32 6 132 132 132 132 132 132 25 132 17 132 27 132 132 132 132 23 30 30 132 132 132 10 132 9 132 132 132 23 132 8 132 132 23 42 40 132 132 31 132 132 132 132 27 20 132 0 132 132 37 132 132 132 132 31 132 51 132 132 29 132 132 28 27 22 132 132 132 132 132 24 132
132 132 132 132 132 132 132 132 132 132 132 132 132 132 132 132 132 26 15 132 34 132 132 132 132 13 132 18 12 30 132 132 132 132 132 132 4 132 132 132 132 132 132 132 19 132 132 132 132 132 132 132 132 132 132 29 132 132 132 132 26 132 132 132 132 132 132 132 32 132 0 24 132 132 132 132 22 132 132 132 132 132 132 20 132 132 132 132 12 23 132 25 132 132 132
132 132 132 132 132 132 132 132 132 25 132 132 132 132 132 132 132 132 34 132 14 132 132 132 132 33 55 13 32 9 132 132 132 132 132 132 22 132 132 132 132 132 132 132 17 132 132 132 132 132 132 132 11 132 132 132 132 132 132 132 25 132 132 17 132 132 132 132 132 132 24 0 132 132 132 132 132 132 24 132 132 33 132 132 132 132 132 132 28 132 132 12 132 132 9
132 132 132 15 132 132 8 132 132 28 35 132 132 132 132 132 26 132 132 132 132 34 132 132 132 132 132 132 132 132 132 38 132 18 132 132 132 132 132 132 7 132 132 132 132 132 132 132 132 132 31 132 132 132 132 132 132 132 19 132 27 132 132 36 132 132 132 132 132 37 132 132 0 132 132 19 132 23 132 22 5 27 12 132 132 132 10 18 132 132 132 132 132 132 132
23 132 132 132 132 132 132 132 132 132 132 23 132 132 132 132 132 37 132 31 132 132 132 132 25 132 132 132 132 132 132 132 132 132 132 132 132 132 17 132 132 132 17 132 132 132 132 132 132 22 132 132 132 132 132 34 132 48 132 132 132 132 132 132 132 4 132 132 32 132 132 132 132 0 7 132 132 132 132 132 132 132 132 45 132 132 132 132 132 132 132 132 14 132 132
18 132 132 132 132 132 132 132 132 132 132 17 132 21 132 132 132 31 132 28 132 132 132 132 18 132 132 132 132 132 132 132 132 132 132 132 132 132 10 132 132 132 13 132 132 132 132 132 132 23 132 132 132 132 132 132 132 47 132 132 132 132 132 132 132 2 132 132 26 132 132 132 132 7 0 132 132 132 132 132 132 132 132 132 132 132 132 132 132 132 132 132 9 132 132
132 132 132 22 132 132 21 132 132 27 132 132 132 32 132 132 20 132 26 132 132 36 132 132 132 132 132 132 132 132 132 132 132 2 132 132 32 132 132 132 23 132 132 132 23 132 132 132 132 132 132 132 132 132 132 132 132 132 17 132 14 132 132 31 132 132 132 132 132 132 132 132 19 132 132 0 16 132 132 34 15 8 30 132 132 132 132 132 24 19 132 132 132 132 132
132 132 132 132 132 132 132 132 132 132 132 132 132 30 132 132 27 19 10 132 132 132 132 132 26 12 132 132 12 132 132 132 132 17 132 132 20 132 132 132 132 132 132 132 19 132 132 132 132 132 132 132 132 132 132 19 132 132 28 132 16 132 132 35 132 132 132 132 132 132 22 132 132 132 132 16 0 132 132 132 31 9 132 9 132 132 132 132 10 4 132 132 132 132 132
132 25 17 26 27 26 25 132 132 40 45 132 132 132 132 132 132 132 132 132 132 132 12 26 132 132 33 132 132 132 132 42 132 132 132 7 132 132 132 132 21 132 132 132 132 132 132 132 32 132 21 9 132 132 132 132 132 132 132 12 47 132 132 132 132 132 10 132 132 31 132 132 23 132 132 132 132 0 48 22 26 132 12 132 25 132 20 12 132 132 132 132 132 7 132
132 35 132 26 63 132 132 132 132 14 132 132 132 132 132 132 132 132 132 132 11 132 132 132 132 132 31 132 132 28 132 8 132 132 132 132 42 132 132 132 132 132 132 132 28 132 132 132 49 132 33 132 17 132 132 132 132 132 132 132 30 132 54 11 132 132 132 132 132 132 132 24 132 132 132 132 132 48 0 26 37 132 47 132 132 132 132 132 44 132 60 132 132 132 18
132 17 132 12 132 132 30 132 132 20 132 132 132 132 132 132 132 132 132 132 32 132 32 132 132 132 21 132 132 132 132 21 132 132 132 26 132 132 132 132 27 132 132 132 38 132 132 132 32 132 11 31 41 132 132 132 132 132 132 24 33 132 37 28 132 132 132 132 132 51 132 132 22 132 132 34 132 22 26 0 21 132 22 132 132 132 29 29 132 132 45 132 132 29 132
132 132 132 12 132 132 13 132 132 23 38 132 132 132 132 132 27 132 132 132 132 37 132 132 132 132 132 132 132 132 132 35 132 14 132 132 132 132 132 132 12 132 132 36 31 132 132 132 132 132 132 132 132 132 132 132 132 132 20 132 22 132 132 31 132 132 132 132 132 132 132 132 5 132 132 15 31 26 37 21 0 22 16 132 132 132 15 132 37 34 132 132 132 132 132
132 132 132 27 132 132 29 132 132 27 132 132 132 33 132 132 25 132 18 132 32 132 132 132 32 20 132 132 20 132 132 132 132 10 132 132 24 132 132 132 132 132 132 40 16 132 132 132 132 132 132 132 132 132 132 28 132 132 23 132 10 132 132 29 35 132 132 132 132 132 132 33 27 132 132 8 9 132 132 132 22 0 132 18 132 132 132 132 16 12 132 132 132 132 132
132 33 132 21 132 132 14 132 132 35 36 132 132 132 132 132 132 132 132 132 132 37 132 25 132 132 40 132 132 132 132 42 132 29 132 19 132 132 132 39 10 132 132 132 132 132 132 132 132 132 27 15 132 30 132 132 132 132 132 23 38 132 132 44 132 132 19 132 132 29 132 132 12 132 132 30 132 12 47 22 16 132 0 132 132 132 9 8 132 132 132 132 132 13 132
32 132 132 132 132 132 132 132 132 132 132 22 132 30 132 132 32 11 6 132 132 132 132 132 22 7 132 132 9 132 132 132 132 26 132 132 19 132 132 132 132 132 132 132 132 132 132 132 132 132 132 132 132 132 132 12 132 132 132 132 132 132 132 132 132 132 132 132 14 132 20 132 132 45 132 132 9 132 132 132 132 18 132 0 132 132 132 132 11 6 132 132 31 132 132
132 33 18 132 7 18 132 34 132 132 132 132 132 132 24 34 132 132 132 132 132 132 13 34 132 132 40 132 132 132 19 132 132 132 132 18 132 132 132 132 132 132 132 132 132 132 25 41 26 132 33 24 132 33 132 132 132 132 132 17 132 132 26 132 132 132 18 132 132 132 132 132 132 132 132 132 132 25 132 132 132 132 132 132 0 132 132 132 132 132 30 132 132 25 132
132 132 132 132 132 132 132 132 132 132 32 132 25 132 132 132 132 132 132 49 132 37 132 132 132 132 132 132 132 132 132 132 21 132 31 132 132 22 132 23 132 21 132 132 132 23 132 25 132 57 132 132 132 34 22 132 8 30 132 132 132 11 132 132 132 132 132 15 132 28 132 132 132 132 132 132 132 132 132 132 132 132 132 132 132 0 132 132 132 132 132 132 132 132 132
132 132 29 24 132 132 6 132 132 132 28 132 30 132 132 132 132 132 132 132 132 28 132 25 132 132 132 132 132 132 132 132 132 25 28 27 132 132 132 32 3 41 132 29 132 132 132 132 132 132 35 20 132 30 132 132 48 48 20 132 132 132 132 132 132 132 132 132 132 27 132 132 10 132 132 132 132 20 132 29 15 132 9 132 132 132 0 11 132 132 132 132 132 19 132
132 132 18 29 132 27 17 132 132 43 33 132 24 132 132 132 132 132 132 132 132 35 20 17 132 132 44 132 132 132 132 132 132 132 33 17 132 132 132 34 14 132 132 132 132 132 132 29 132 132 32 9 132 22 132 132 132 132 132 24 132 132 132 132 132 132 15 132 132 22 132 132 18 132 132 132 132 12 132 29 132 132 8 132 132 132 11 0 132 132 132 132 132 9 132
132 132 132 40 132 132 132 132 132 35 132 132 132 132 132 132 37 20 6 132 34 132 132 132 132 6 132 28 5 132 132 132 132 25 132 132 10 132 132 132 132 132 132 132 16 132 132 132 132 132 132 132 132 132 132 22 132 132 132 132 18 132 132 32 132 132 132 132 132 132 12 28 132 132 132 24 10 132 44 132 37 16 132 11 132 132 132 132 0 11 132 34 132 132 36
30 132 132 132 132 132 38 132 38 132 132 23 132 28 132 132 27 16 9 42 132 44 132 132 22 12 132 132 12 132 132 132 132 20 132 132 21 132 30 132 132 132 35 41 23 132 132 132 132 132 132 132 132 132 132 16 132 132 28 132 20 132 132 132 33 132 132 132 18 132 23 132 132 132 132 19 4 132 132 132 34 12 132 6 132 132 132 132 11 0 132 132 33 132 132
132 28 132 132 23 48 132 132 132 61 132 132 132 132 55 132 132 132 132 132 70 132 37 132 132 132 29 132 132 132 49 52 132 132 132 132 132 132 132 132 132 132 132 132 132 132 10 132 13 132 33 132 76 62 132 132 132 132 132 31 132 132 8 68 132 132 132 132 132 132 132 132 132 132 132 132 132 132 60 45 132 132 132 132 30 132 132 132 132 132 0 132 132 132 78
132 132 132 132 132 132 132 132 132 132 132 132 132 132 132 132 132 132 132 132 25 132 132 132 132 132 132 6 35 8 132 132 132 132 132 132 25 132 132 132 132 132 132 132 27 132 132 132 132 132 132 132 19 132 132 132 132 132 132 132 132 132 132 132 132 132 132 132 132 132 25 12 132 132 132 132 132 132 132 132 132 132 132 132 132 132 132 132 34 132 132 0 132 132 17
18 132 132 132 132 132 132 132 132 132 132 10 132 21 132 132 132 23 132 31 132 132 132 132 13 37 132 132 132 132 132 132 132 132 132 132 132 132 5 132 132 132 16 132 132 132 132 132 132 30 132 132 132 132 132 20 132 132 132 132 132 132 132 132 132 11 132 132 17 132 132 132 132 14 9 132 132 132 132 132 132 132 132 31 132 132 132 132 132 33 132 132 0 132 132
132 32 12 32 132 21 132 132 132 132 132 132 132 132 132 132 132 132 132 132 132 132 12 18 132 132 132 132 132 132 132 132 132 132 132 10 132 132 132 132 21 132 132 132 132 132 132 132 132 132 28 2 132 21 132 132 132 132 132 16 132 132 132 132 132 132 6 132 132 24 132 132 132 132 132 132 132 7 132 29 132 132 13 132 25 132 19 9 132 132 132 132 132 0 132
132 132 132 132 132 132 132 132 132 24 132 132 132 132 132 132 132 132 132 132 10 132 132 132 132 132 49 20 132 10 132 26 132 132 132 132 31 132 132 132 132 132 132 132 23 132 132 132 132 132 132 132 2 132 132 132 132 132 132 132 29 132 132 15 132 132 132 132 132 132 132 9 132 132 132 132 132 132 18 132 132 132 132 132 132 132 132 132 36 132 78 17 132 132 0
EOF
